c first number: size X (A)
c second number: size Y (B)
c third number: number of edges (m)
c following: adjacencies between X and Y as (x,y)
p ocr 3 3 6
1 4
1 5
1 6
2 4
2 5
2 6
3 4
3 5
3 6